Version identifier: 20.1.0.0 | 2020-11-10 | 9bedb6d68
Tried aggregator 2 times.
MIP Presolve eliminated 652 rows and 365 columns.
MIP Presolve modified 1317 coefficients.
Aggregator did 81 substitutions.
Reduced MIP has 548 rows, 461 columns, and 1736 nonzeros.
Reduced MIP has 131 binaries, 330 generals, 0 SOSs, and 0 indicators.
Presolve time = 0.01 sec. (2.80 ticks)
Found incumbent of value 30.000000 after 0.01 sec. (4.85 ticks)
Probing fixed 15 vars, tightened 124 bounds.
Probing time = 0.00 sec. (0.38 ticks)
Tried aggregator 2 times.
Detecting symmetries...
MIP Presolve eliminated 223 rows and 17 columns.
MIP Presolve modified 42 coefficients.
Aggregator did 4 substitutions.
Reduced MIP has 321 rows, 440 columns, and 1044 nonzeros.
Reduced MIP has 168 binaries, 272 generals, 0 SOSs, and 0 indicators.
Presolve time = 0.00 sec. (1.46 ticks)
Probing time = 0.00 sec. (0.09 ticks)
Clique table members: 16.
MIP emphasis: balance optimality and feasibility.
MIP search method: dynamic search.
Parallel mode: deterministic, using up to 24 threads.
Root relaxation solution time = 0.00 sec. (0.85 ticks)

        Nodes                                         Cuts/
   Node  Left     Objective  IInf  Best Integer    Best Bound    ItCnt     Gap

*     0+    0                           30.0000        0.0000           100.00%
      0     0        0.0000    23       30.0000        0.0000      107  100.00%
      0     0        2.3333    80       30.0000      Cuts: 52      190   92.22%
      0     0        3.0000    84       30.0000      Cuts: 59      231   90.00%
*     0+    0                           12.0000        3.0000            75.00%
      0     0        3.0000   102       12.0000      Cuts: 34      270   75.00%
      0     0        3.0000    57       12.0000    MIRcuts: 1      285   75.00%
      0     0        3.0000    47       12.0000      Cuts: 19      299   75.00%
      0     0        3.0000    73       12.0000      Cuts: 27      319   75.00%
*     0+    0                            9.0000        3.0000            66.67%
*     0+    0                            8.0000        3.0000            62.50%
      0     0        cutoff              8.0000        8.0000      319    0.00%
Elapsed time = 0.43 sec. (38.74 ticks, tree = 0.01 MB, solutions = 4)

Implied bound cuts applied:  8
Flow cuts applied:  6
Mixed integer rounding cuts applied:  5
Zero-half cuts applied:  27
Lift and project cuts applied:  2
Gomory fractional cuts applied:  9

Root node processing (before b&c):
  Real time             =    0.44 sec. (38.80 ticks)
Parallel b&c, 24 threads:
  Real time             =    0.00 sec. (0.00 ticks)
  Sync time (average)   =    0.00 sec.
  Wait time (average)   =    0.00 sec.
                          ------------
Total (root+branch&cut) =    0.44 sec. (38.80 ticks)

Solution status = Optimal
Solution LB = 8
Solution UB = 8
Runtime = 0.440082 seconds
	Command being timed: "/home/min/git_repos/CS598MEBProject/CNT-ILP/build/cnt -s 2 ./output/k6_n15/simC_c1_k6_n15_u2_s1_del04.input-left.cnp"
	User time (seconds): 7.30
	System time (seconds): 0.02
	Percent of CPU this job got: 1566%
	Elapsed (wall clock) time (h:mm:ss or m:ss): 0:00.46
	Average shared text size (kbytes): 0
	Average unshared data size (kbytes): 0
	Average stack size (kbytes): 0
	Average total size (kbytes): 0
	Maximum resident set size (kbytes): 50628
	Average resident set size (kbytes): 0
	Major (requiring I/O) page faults: 0
	Minor (reclaiming a frame) page faults: 9639
	Voluntary context switches: 1884
	Involuntary context switches: 953
	Swaps: 0
	File system inputs: 0
	File system outputs: 16
	Socket messages sent: 0
	Socket messages received: 0
	Signals delivered: 0
	Page size (bytes): 4096
	Exit status: 0
